data/MCDM/NO_CORR/GEN_FROM_60/18_ITEMS_1000_GEN/K5018W02.KNP.mps
NAME          BLANK   
ROWS
 N  OBJROW
 L  R0000000
COLUMNS
    C0000000  OBJROW     -457.         R0000000  309.        
    C0000001  OBJROW     -393.         R0000000  862.        
    C0000002  OBJROW     -185.         R0000000  228.        
    C0000003  OBJROW     -800.         R0000000  155.        
    C0000004  OBJROW     -286.         R0000000  369.        
    C0000005  OBJROW     -869.         R0000000  465.        
    C0000006  OBJROW     -540.         R0000000  409.        
    C0000007  OBJROW     -95.          R0000000  473.        
    C0000008  OBJROW     -608.         R0000000  314.        
    C0000009  OBJROW     -755.         R0000000  602.        
    C0000010  OBJROW     -938.         R0000000  712.        
    C0000011  OBJROW     -202.         R0000000  985.        
    C0000012  OBJROW     -387.         R0000000  194.        
    C0000013  OBJROW     -923.         R0000000  298.        
    C0000014  OBJROW     -212.         R0000000  276.        
    C0000015  OBJROW     -682.         R0000000  202.        
    C0000016  OBJROW     -63.          R0000000  217.        
    C0000017  OBJROW     -58.          R0000000  768.        
RHS
    RHS       R0000000  14144.      
BOUNDS
 BV BOUND     C0000000  1.          
 BV BOUND     C0000001  1.          
 BV BOUND     C0000002  1.          
 BV BOUND     C0000003  1.          
 BV BOUND     C0000004  1.          
 BV BOUND     C0000005  1.          
 BV BOUND     C0000006  1.          
 BV BOUND     C0000007  1.          
 BV BOUND     C0000008  1.          
 BV BOUND     C0000009  1.          
 BV BOUND     C0000010  1.          
 BV BOUND     C0000011  1.          
 BV BOUND     C0000012  1.          
 BV BOUND     C0000013  1.          
 BV BOUND     C0000014  1.          
 BV BOUND     C0000015  1.          
 BV BOUND     C0000016  1.          
 BV BOUND     C0000017  1.          
ENDATA
