data/MCDM/NO_CORR/GEN_FROM_60/18_ITEMS_1000_GEN/K5018W02.KNP.txt
N 18
M 19
LC 18
LC 19
LC 20
LC 21
LC 22
LC 23
LC 24
LC 25
LC 26
LC 27
LC 28
LC 29
LC 30
LC 31
LC 32
LC 33
LC 34
LC 35
LR 1
LR 2
LR 3
LR 4
LR 5
LR 6
LR 7
LR 8
LR 9
LR 10
LR 11
LR 12
LR 13
LR 14
LR 15
LR 16
LR 17
LR 18
LR 19
LO -457
LO -393
LO -185
LO -800
LO -286
LO -869
LO -540
LO -95
LO -608
LO -755
LO -938
LO -202
LO -387
LO -923
LO -212
LO -682
LO -63
LO -58
OS 1
IC 531
IC 413
IC 426
IC 797
IC 243
IC 719
IC 812
IC 669
IC 781
IC 992
IC 103
IC 62
IC 582
IC 945
IC 623
IC 263
IC 962
IC 688
IB 5306
